Problem:    
Rows:       260
Columns:    89 (72 integer, 72 binary)
Non-zeros:  936
Status:     INTEGER OPTIMAL
Objective:  value = 3.592255 (MINimum)

   No.   Row name        Activity     Lower bound   Upper bound
------ ------------    ------------- ------------- -------------
     1 r.5                   1027.59             0               
     2 r.6                  -1022.04      -1023.29               
     3 r.7                   3.59225             0               
     4 r.8                   1.95615      -1019.94               
     5 r.9                   1027.59             0               
     6 r.10                 -1022.76       -1023.3               
     7 r.11                  3.59225             0               
     8 r.12                 0.038333      -1020.06               
     9 r.13                  1027.59             0               
    10 r.14                 -1023.89      -1023.92               
    11 r.15                  3.59225             0               
    12 r.16                 0.038333       -1022.6               
    13 r.17                  1027.59             0               
    14 r.18                 -1023.76      -1023.88               
    15 r.19                  3.59225             0               
    16 r.20                  2.82105      -1021.88               
    17 r.21                  1027.59             0               
    18 r.22                 -1023.45      -1023.69               
    19 r.23                  3.59225             0               
    20 r.24                  1.95615       -1021.8               
    21 r.25                  1027.59             0               
    22 r.26                 -1023.96      -1023.96               
    23 r.27                  3.59225             0               
    24 r.28                 0.038333      -1023.11               
    25 r.29                  1027.59             0               
    26 r.30                 -1020.41      -1023.23               
    27 r.31                  3.59225             0               
    28 r.32                 -1019.86      -1022.68               
    29 r.33                  1027.59             0               
    30 r.34                 -1021.18      -1023.14               
    31 r.35                  3.59225             0               
    32 r.36                  3.59225      -1023.03               
    33 r.37                        1             1             = 
    34 r.38                        1             1             = 
    35 r.39                        1             1             = 
    36 r.40                        1             1             = 
    37 r.41                        1             1             = 
    38 r.42                        1             1             = 
    39 r.43                        1             1             = 
    40 r.44                        1             1             = 
    41 r.45                        2             2               
    42 r.46                       -2         -1025               
    43 r.47                  -0.7112       -1023.3               
    44 r.48                     1024             2               
    45 r.49                    -1024         -1025               
    46 r.50                  2046.08      -1020.06               
    47 r.51                        2             2               
    48 r.52                       -2         -1025               
    49 r.53                 -1.84242      -1023.92               
    50 r.54                     1024             2               
    51 r.55                    -1024         -1025               
    52 r.56                  2046.08       -1022.6               
    53 r.57                        2             2               
    54 r.58                       -2         -1025               
    55 r.59                 -1.72002      -1023.88               
    56 r.60                     1024             2               
    57 r.61                    -1024         -1025               
    58 r.62                  2048.86      -1021.88               
    59 r.63                        2             2               
    60 r.64                       -2         -1025               
    61 r.65                 -1.41092      -1023.69               
    62 r.66                     1024             2               
    63 r.67                    -1024         -1025               
    64 r.68                     2048       -1021.8               
    65 r.69                  1.20662             0               
    66 r.70                  1.91782             0               
    67 r.71                  1.20662             0               
    68 r.72                  1.91782             0               
    69 r.73                 -1022.36      -1023.23               
    70 r.74                 -1021.81      -1022.68               
    71 r.75                 -1022.36      -1023.23               
    72 r.76                 -1021.81      -1022.68               
    73 r.77                 -1023.14      -1023.14               
    74 r.78                   1.6361      -1023.03               
    75 r.79                 -1023.14      -1023.14               
    76 r.80                   1.6361      -1023.03               
    77 r.81                        2             2               
    78 r.82                       -2         -1025               
    79 r.83                   0.7112        0.7112               
    80 r.84                     1024             2               
    81 r.85                    -1024         -1025               
    82 r.86                  2049.92       4.06269               
    83 r.87                        2             2               
    84 r.88                       -2         -1025               
    85 r.89                 -1.13122      -1023.92               
    86 r.90                     1024             2               
    87 r.91                    -1024         -1025               
    88 r.92                     2048       -1022.6               
    89 r.93                        2             2               
    90 r.94                       -2         -1025               
    91 r.95                 -1.00882      -1023.88               
    92 r.96                     1024             2               
    93 r.97                    -1024         -1025               
    94 r.98                  2050.78      -1021.88               
    95 r.99                        2             2               
    96 r.100                      -2         -1025               
    97 r.101               -0.699722      -1023.69               
    98 r.102                    1024             2               
    99 r.103                   -1024         -1025               
   100 r.104                 2049.92       -1021.8               
   101 r.105                  0.5069             0               
   102 r.106                       0             0               
   103 r.107                  0.5069             0               
   104 r.108                       0             0               
   105 r.109                -1021.65      -1023.23               
   106 r.110                 -1021.1      -1022.68               
   107 r.111                -1020.45      -1023.23               
   108 r.112                -1019.89      -1022.68               
   109 r.113                       2             2               
   110 r.114                      -2         -1025               
   111 r.115                -1022.42      -1023.14               
   112 r.116                    1024             2               
   113 r.117                   -1024         -1025               
   114 r.118                 2051.55      -1023.03               
   115 r.119                       2             2               
   116 r.120                      -2         -1025               
   117 r.121                 1.84242        0.7112               
   118 r.122                    1024             2               
   119 r.123                   -1024         -1025               
   120 r.124                 2049.92       4.06269               
   121 r.125                       2             2               
   122 r.126                      -2         -1025               
   123 r.127                 1.13122      0.699722               
   124 r.128                    1024             2               
   125 r.129                   -1024         -1025               
   126 r.130                    2048       3.93862               
   127 r.131                       2             2               
   128 r.132                      -2         -1025               
   129 r.133                -1023.88      -1023.88               
   130 r.134                    1024             2               
   131 r.135                   -1024         -1025               
   132 r.136                 2050.78      -1021.88               
   133 r.137                       2             2               
   134 r.138                      -2         -1025               
   135 r.139                -1023.57      -1023.69               
   136 r.140                    1024             2               
   137 r.141                   -1024         -1025               
   138 r.142                 2049.92       -1021.8               
   139 r.143                       0             0               
   140 r.144                       0             0               
   141 r.145                       0             0               
   142 r.146                       0             0               
   143 r.147                -1020.52      -1023.23               
   144 r.148                -1019.97      -1022.68               
   145 r.149                -1020.45      -1023.23               
   146 r.150                -1019.89      -1022.68               
   147 r.151                -1021.29      -1023.14               
   148 r.152                 3.47852      -1023.03               
   149 r.153                -1021.22      -1023.14               
   150 r.154                 3.55392      -1023.03               
   151 r.155                       2             2               
   152 r.156                      -2         -1025               
   153 r.157                 1.72002        0.7112               
   154 r.158                    1024             2               
   155 r.159                   -1024         -1025               
   156 r.160                 2047.14       4.06269               
   157 r.161                       2             2               
   158 r.162                      -2         -1025               
   159 r.163                 1.00882      0.699722               
   160 r.164                    1024             2               
   161 r.165                   -1024         -1025               
   162 r.166                 2045.22       3.93862               
   163 r.167                       2             2               
   164 r.168                      -2         -1025               
   165 r.169                 1023.88        0.0754               
   166 r.170                    1024             2               
   167 r.171                   -1024         -1025               
   168 r.172                 2045.22       1.39771               
   169 r.173                       2             2               
   170 r.174                      -2         -1025               
   171 r.175                -1023.69      -1023.69               
   172 r.176                    1024             2               
   173 r.177                   -1024         -1025               
   174 r.178                 2047.14       -1021.8               
   175 r.179                  0.0754             0               
   176 r.180                 2.78272             0               
   177 r.181                  0.0754             0               
   178 r.182                 2.78272             0               
   179 r.183                -1020.64      -1023.23               
   180 r.184                -1020.09      -1022.68               
   181 r.185                -1023.23      -1023.23               
   182 r.186                -1022.68      -1022.68               
   183 r.187                       2             2               
   184 r.188                      -2         -1025               
   185 r.189                -1021.42      -1023.14               
   186 r.190                    1024             2               
   187 r.191                   -1024         -1025               
   188 r.192                 2048.77      -1023.03               
   189 r.193                       2             2               
   190 r.194                      -2         -1025               
   191 r.195                 1.41092        0.7112               
   192 r.196                    1024             2               
   193 r.197                   -1024         -1025               
   194 r.198                    2048       4.06269               
   195 r.199                       2             2               
   196 r.200                      -2         -1025               
   197 r.201                0.699722      0.699722               
   198 r.202                    1024             2               
   199 r.203                   -1024         -1025               
   200 r.204                 2046.08       3.93862               
   201 r.205                       2             2               
   202 r.206                      -2         -1025               
   203 r.207                 1023.57        0.0754               
   204 r.208                    1024             2               
   205 r.209                   -1024         -1025               
   206 r.210                 2046.08       1.39771               
   207 r.211                       2             2               
   208 r.212                      -2         -1025               
   209 r.213                 1023.69        0.1224               
   210 r.214                    1024             2               
   211 r.215                   -1024         -1025               
   212 r.216                 2048.86       2.11911               
   213 r.217                  0.1978             0               
   214 r.218                 1.91782             0               
   215 r.219                  0.1978             0               
   216 r.220                 1.91782             0               
   217 r.221                       2             2               
   218 r.222                      -2         -1025               
   219 r.223                -1020.95      -1023.23               
   220 r.224                    1024             2               
   221 r.225                   -1024         -1025               
   222 r.226                 1026.19      -1022.68               
   223 r.227                -1021.72      -1023.14               
   224 r.228                 3.04702      -1023.03               
   225 r.229                -1023.14      -1023.14               
   226 r.230                  1.6361      -1023.03               
   227 r.231                -1020.45      -1023.23               
   228 r.232                -1019.89      -1022.68               
   229 r.233                -1020.45      -1023.23               
   230 r.234                -1019.89      -1022.68               
   231 r.235                       2             2               
   232 r.236                      -2         -1025               
   233 r.237                 1020.95        0.3091               
   234 r.238                    1024             2               
   235 r.239                   -1024         -1025               
   236 r.240                 3069.81       2.20377               
   237 r.241                       2             2               
   238 r.242                      -2         -1025               
   239 r.243                 -0.7712      -1023.14               
   240 r.244                    1024             2               
   241 r.245                   -1024         -1025               
   242 r.246                 3071.45      -1023.03               
   243 r.247                       2             2               
   244 r.248                      -2         -1025               
   245 r.249                 1022.42      0.699722               
   246 r.250                    1024             2               
   247 r.251                   -1024         -1025               
   248 r.252                 2044.45       3.93862               
   249 r.253                       2             2               
   250 r.254                      -2         -1025               
   251 r.255                 1021.42        0.1224               
   252 r.256                    1024             2               
   253 r.257                   -1024         -1025               
   254 r.258                 2047.23       2.11911               
   255 r.259                       2             2               
   256 r.260                      -2         -1025               
   257 r.261                  0.7712        0.7712               
   258 r.262                    1024             2               
   259 r.263                   -1024         -1025               
   260 r.264                 1024.55        1.3237               

   No. Column name       Activity     Lower bound   Upper bound
------ ------------    ------------- ------------- -------------
     1 tt                    3.59225             0               
     2 s_1_1        *              1             0             1 
     3 t_1_1                  1.6361             0               
     4 s_1_8        *              1             0             1 
     5 s_2_1        *              0             0             1 
     6 t_2_1                  1.6361             0               
     7 s_2_8        *              0             0             1 
     8 s_1_2        *              1             0             1 
     9 t_1_2                  2.3473             0               
    10 s_1_7        *              1             0             1 
    11 s_2_2        *              0             0             1 
    12 t_2_2                 3.55392             0               
    13 s_2_7        *              0             0             1 
    14 s_1_3        *              1             0             1 
    15 t_1_3                 3.47852             0               
    16 s_2_3        *              0             0             1 
    17 t_2_3                 3.55392             0               
    18 s_1_4        *              1             0             1 
    19 t_1_4                 3.35612             0               
    20 s_2_4        *              0             0             1 
    21 t_2_4                  0.7712             0               
    22 s_1_5        *              1             0             1 
    23 t_1_5                 3.04702             0               
    24 s_2_5        *              0             0             1 
    25 t_2_5                  1.6361             0               
    26 s_1_6        *              1             0             1 
    27 t_1_6                 3.55392             0               
    28 s_2_6        *              0             0             1 
    29 t_2_6                 3.55392             0               
    30 t_1_7                       0             0               
    31 t_2_7                 1023.45             0               
    32 t_1_8                  0.7712             0               
    33 t_2_8                       0             0               
    34 r_1_1_2      *              0             0             1 
    35 u_1_1_2      *              0             0             1 
    36 r_2_1_2      *              1             0             1 
    37 u_2_1_2      *              0             0             1 
    38 r_1_1_3      *              0             0             1 
    39 u_1_1_3      *              0             0             1 
    40 r_2_1_3      *              1             0             1 
    41 u_2_1_3      *              0             0             1 
    42 r_1_1_4      *              0             0             1 
    43 u_1_1_4      *              0             0             1 
    44 r_2_1_4      *              1             0             1 
    45 u_2_1_4      *              0             0             1 
    46 r_1_1_5      *              0             0             1 
    47 u_1_1_5      *              0             0             1 
    48 r_2_1_5      *              1             0             1 
    49 u_2_1_5      *              0             0             1 
    50 r_1_2_3      *              0             0             1 
    51 u_1_2_3      *              0             0             1 
    52 r_2_2_3      *              1             0             1 
    53 u_2_2_3      *              0             0             1 
    54 r_1_2_4      *              0             0             1 
    55 u_1_2_4      *              0             0             1 
    56 r_2_2_4      *              1             0             1 
    57 u_2_2_4      *              0             0             1 
    58 r_1_2_5      *              0             0             1 
    59 u_1_2_5      *              0             0             1 
    60 r_2_2_5      *              1             0             1 
    61 u_2_2_5      *              0             0             1 
    62 r_1_2_8      *              0             0             1 
    63 u_1_2_8      *              1             0             1 
    64 r_2_2_8      *              1             0             1 
    65 u_2_2_8      *              0             0             1 
    66 r_1_3_4      *              0             0             1 
    67 u_1_3_4      *              1             0             1 
    68 r_2_3_4      *              1             0             1 
    69 u_2_3_4      *              0             0             1 
    70 r_1_3_5      *              0             0             1 
    71 u_1_3_5      *              1             0             1 
    72 r_2_3_5      *              1             0             1 
    73 u_2_3_5      *              0             0             1 
    74 r_1_4_5      *              0             0             1 
    75 u_1_4_5      *              1             0             1 
    76 r_2_4_5      *              1             0             1 
    77 u_2_4_5      *              0             0             1 
    78 r_1_4_8      *              0             0             1 
    79 u_1_4_8      *              1             0             1 
    80 r_2_4_8      *              1             0             1 
    81 u_2_4_8      *              0             0             1 
    82 r_1_5_7      *              0             0             1 
    83 u_1_5_7      *              1             0             1 
    84 r_2_5_7      *              1             0             1 
    85 u_2_5_7      *              0             0             1 
    86 r_1_7_8      *              0             0             1 
    87 u_1_7_8      *              0             0             1 
    88 r_2_7_8      *              1             0             1 
    89 u_2_7_8      *              0             0             1 

Integer feasibility conditions:

KKT.PE: max.abs.err = 8.88e-16 on row 85
        max.rel.err = 7.98e-17 on row 97
        High quality

KKT.PB: max.abs.err = 6.33e-14 on column 30
        max.rel.err = 6.33e-14 on column 30
        High quality

End of output
